p cnf 960 1857
-5  -1  -2  0
-9  5  -6  0
-13  -9  10  0
-17  13  -14  0
-21  17  -18  0
29  -25  26  0
-37  -33  34  0
41  -37  -38  0
45  41  -42  0
49  45  46  0
53  -49  50  0
57  -53  -54  0
61  57  -58  0
-65  -61  62  0
81  77  78  0
-85  -81  82  0
89  -85  86  0
101  -97  -98  0
105  101  102  0
125  121  122  0
129  -125  126  0
145  141  -142  0
149  145  -146  0
-153  -149  150  0
-157  -153  -154  0
161  157  -158  0
165  -161  -162  0
-169  -165  166  0
173  -169  170  0
177  173  174  0
-185  -181  182  0
189  -185  -186  0
193  189  190  0
197  193  -194  0
-201  197  -198  0
-205  201  -202  0
209  205  206  0
-213  -209  210  0
217  213  214  0
-229  225  -226  0
-233  229  -230  0
237  -233  234  0
241  -237  -238  0
-245  241  -242  0
249  -245  246  0
253  249  250  0
265  261  -262  0
-273  -269  -270  0
277  273  -274  0
-281  -277  -278  0
-285  281  -282  0
305  -301  302  0
-313  -309  -310  0
325  -321  -322  0
-329  325  326  0
333  -329  -330  0
337  -333  334  0
-345  -341  -342  0
-353  -349  350  0
357  353  354  0
365  -361  362  0
-369  365  -366  0
377  -373  -374  0
385  -381  382  0
397  393  -394  0
401  397  398  0
-405  -401  -402  0
-413  -409  -410  0
-417  -413  -414  0
421  417  -418  0
429  425  426  0
433  -429  -430  0
437  -433  434  0
441  437  -438  0
-445  -441  442  0
-449  -445  -446  0
-461  -457  458  0
469  -465  466  0
477  473  -474  0
485  -481  482  0
489  -485  -486  0
-501  -497  498  0
513  -509  -510  0
-521  517  518  0
529  525  526  0
-533  529  -530  0
-537  533  534  0
541  537  -538  0
545  -541  -542  0
-549  -545  546  0
-553  -549  -550  0
-561  -557  -558  0
-573  -569  570  0
581  -577  578  0
-589  585  586  0
-597  593  -594  0
601  -597  -598  0
-605  -601  602  0
-609  605  606  0
613  609  610  0
-617  613  614  0
621  -617  618  0
625  -621  622  0
-633  629  630  0
-637  633  634  0
-645  641  642  0
657  -653  -654  0
665  -661  -662  0
669  665  666  0
673  669  -670  0
677  673  -674  0
-689  -685  686  0
-693  689  -690  0
697  693  -694  0
705  -701  -702  0
713  709  -710  0
-721  717  718  0
725  -721  722  0
-729  725  -726  0
-733  -729  -730  0
-737  -733  734  0
-741  -737  -738  0
-745  741  -742  0
749  -745  -746  0
757  -753  -754  0
-761  757  758  0
-765  761  762  0
-773  -769  770  0
777  773  -774  0
-781  -777  778  0
789  785  786  0
793  -789  -790  0
-801  -797  -798  0
-805  801  802  0
-809  805  -806  0
-813  809  810  0
817  813  814  0
821  -817  818  0
829  825  -826  0
-833  829  -830  0
837  -833  834  0
849  845  846  0
-861  857  -858  0
869  -865  866  0
873  869  -870  0
-881  877  878  0
885  -881  882  0
889  -885  -886  0
897  -893  -894  0
-901  -897  898  0
-905  -901  -902  0
-921  917  -918  0
-925  -921  922  0
929  -925  926  0
-941  -937  -938  0
-945  -941  942  0
-949  -945  -946  0
-957  -953  954  0
6  1  2  0
6  2  3  0
-10  9  -5  0
10  -5  6  0
-10  6  7  0
14  13  10  0
-14  13  -9  0
14  -9  10  0
18  17  14  0
-18  17  -13  0
-18  -13  14  0
-22  -21  -18  0
-22  -21  17  0
-22  17  -18  0
-22  -18  19  0
30  -29  -26  0
-30  -25  26  0
-30  -26  -27  0
-34  -33  -30  0
38  -33  -34  0
42  37  -38  0
-46  45  41  0
50  -49  -46  0
50  46  -47  0
54  53  49  0
-54  50  -51  0
58  -53  -54  0
-58  -54  -55  0
-62  -61  -58  0
62  -61  57  0
-62  57  58  0
-66  65  -62  0
66  -61  62  0
-66  -62  63  0
70  69  -65  0
-70  -65  -66  0
70  66  67  0
74  73  69  0
74  70  71  0
-78  -77  -74  0
-78  77  73  0
-78  -74  -75  0
82  81  -78  0
82  -81  77  0
-82  77  78  0
86  85  -81  0
86  81  82  0
-86  82  83  0
-90  -86  87  0
94  93  -90  0
94  89  90  0
-94  90  91  0
-98  97  93  0
98  -93  -94  0
102  -101  -97  0
-102  -97  -98  0
106  105  -102  0
-106  -105  -101  0
106  -101  -102  0
110  109  106  0
110  109  105  0
-110  105  106  0
114  -113  -110  0
114  113  -109  0
-114  -109  110  0
-118  117  -114  0
118  -117  -113  0
-118  -113  -114  0
-122  -121  118  0
-122  -117  118  0
122  -118  119  0
-126  125  121  0
-126  -121  -122  0
-126  122  -123  0
130  129  126  0
130  -126  127  0
-134  133  130  0
134  -129  130  0
134  130  -131  0
138  -137  133  0
-138  -133  134  0
-138  -134  135  0
-142  -141  -138  0
142  141  137  0
142  -137  -138  0
142  138  -139  0
-146  -145  141  0
-146  141  142  0
-146  142  143  0
-150  145  -146  0
-150  -146  147  0
154  153  -150  0
-154  -149  150  0
-154  150  151  0
-158  -154  -155  0
162  -161  -158  0
162  161  -157  0
162  -158  159  0
-166  -162  -163  0
-170  -169  166  0
170  169  165  0
-170  -165  -166  0
-170  -166  -167  0
-174  -169  -170  0
-174  170  -171  0
-178  -177  -174  0
178  177  173  0
-178  173  -174  0
178  -174  -175  0
-182  181  178  0
182  181  -177  0
-186  -185  -181  0
-186  -181  182  0
-190  -186  -187  0
194  -193  190  0
-194  193  189  0
194  -189  -190  0
194  -190  191  0
198  197  194  0
-198  197  -193  0
198  -193  -194  0
-202  201  197  0
-202  -198  -199  0
206  205  -202  0
-206  201  -202  0
210  209  205  0
210  -205  -206  0
210  206  207  0
214  213  -210  0
214  -213  -209  0
214  209  210  0
-214  -210  -211  0
-218  -217  214  0
-218  213  -214  0
218  214  215  0
222  -221  218  0
226  -225  -222  0
226  221  -222  0
-230  -229  226  0
234  -233  230  0
234  230  -231  0
-238  -237  -234  0
238  -237  -233  0
-238  -233  234  0
238  234  235  0
242  -241  -237  0
-242  237  238  0
-246  -245  242  0
-246  241  242  0
-250  -249  246  0
250  245  -246  0
-250  246  247  0
254  -253  -250  0
254  250  -251  0
258  257  253  0
258  254  255  0
262  -257  258  0
-270  -269  -266  0
270  -269  265  0
270  -265  -266  0
274  273  270  0
274  273  269  0
274  270  271  0
278  -277  -274  0
-278  273  -274  0
-278  274  -275  0
282  -277  -278  0
-286  285  282  0
286  281  282  0
-286  282  -283  0
-290  -289  -285  0
290  285  286  0
-290  286  287  0
294  -293  -289  0
-294  289  290  0
298  -297  -294  0
-298  -293  -294  0
-302  -301  -298  0
302  -298  299  0
-306  -305  -301  0
306  -301  -302  0
-306  -302  303  0
310  -309  306  0
-310  -305  306  0
-310  306  307  0
-314  -313  310  0
-314  313  309  0
314  309  -310  0
-314  -310  -311  0
-318  317  313  0
318  313  -314  0
-318  314  -315  0
-322  321  318  0
-322  -321  -317  0
326  -321  322  0
326  -322  -323  0
-330  -329  -326  0
330  -329  -325  0
330  -325  -326  0
330  -326  -327  0
-334  333  -330  0
334  333  -329  0
-334  -329  -330  0
334  330  331  0
338  337  -334  0
-338  -337  333  0
342  -337  -338  0
346  -345  342  0
346  -345  341  0
346  -342  343  0
-350  -349  -346  0
-350  345  346  0
-350  -346  -347  0
354  -353  350  0
-354  353  -349  0
-354  -349  -350  0
354  -350  351  0
358  -357  354  0
-362  361  357  0
362  358  -359  0
-366  365  362  0
366  -365  361  0
-366  361  362  0
366  -362  363  0
-370  -369  366  0
-370  -369  -365  0
-370  -365  366  0
-370  -366  -367  0
374  373  370  0
-374  -369  370  0
374  370  371  0
378  -377  374  0
378  -377  -373  0
378  -374  -375  0
382  381  377  0
386  385  382  0
386  385  -381  0
-386  381  -382  0
-390  389  -385  0
390  -386  387  0
-394  -393  -390  0
394  393  -389  0
398  -397  393  0
398  -393  394  0
398  394  -395  0
-402  -401  -398  0
-402  398  -399  0
-406  405  -402  0
406  -402  403  0
410  406  -407  0
-414  413  410  0
414  413  409  0
414  409  410  0
414  410  411  0
418  -417  -414  0
418  417  -413  0
-422  -418  -419  0
426  425  422  0
426  -425  -421  0
-426  421  -422  0
-430  -429  426  0
-430  429  -425  0
430  -425  426  0
430  426  -427  0
434  -433  429  0
-434  429  -430  0
-434  -430  431  0
438  -433  434  0
-438  -434  435  0
-442  -441  -437  0
442  -437  438  0
-442  -438  -439  0
446  442  443  0
-450  449  445  0
-450  -445  446  0
-450  -446  -447  0
454  449  450  0
454  450  451  0
-458  457  -454  0
-458  -453  -454  0
-462  -461  -458  0
462  461  -457  0
462  457  -458  0
462  -458  459  0
466  -465  461  0
-466  461  -462  0
466  -462  -463  0
470  -469  -466  0
470  -469  465  0
470  465  466  0
-470  466  467  0
474  -473  -470  0
474  -473  -469  0
-474  470  -471  0
482  -481  477  0
486  485  -481  0
-486  481  -482  0
-486  -482  483  0
-490  489  -486  0
490  485  486  0
494  493  -490  0
-494  -493  489  0
-494  490  491  0
498  -497  -494  0
-498  -497  -493  0
498  -493  494  0
502  501  498  0
-502  -497  -498  0
506  -505  502  0
-506  -505  501  0
-510  509  -506  0
510  -509  -505  0
510  505  -506  0
-514  513  -510  0
-514  -509  510  0
-514  510  511  0
-518  517  -514  0
518  513  514  0
518  514  -515  0
522  -521  -517  0
-526  525  -521  0
-526  -522  -523  0
530  529  -526  0
-530  -529  -525  0
-530  525  526  0
530  526  -527  0
534  -533  -530  0
534  533  -529  0
534  -530  -531  0
538  -537  -534  0
538  534  535  0
542  541  537  0
542  537  -538  0
-542  538  -539  0
-546  545  -542  0
546  -545  -541  0
550  549  546  0
-550  549  545  0
-550  546  -547  0
554  -553  -550  0
554  549  -550  0
554  -550  551  0
-558  -557  -554  0
-558  -557  -553  0
-562  561  -558  0
-562  561  557  0
-562  -557  -558  0
-562  -558  -559  0
-566  -565  -562  0
-566  -565  -561  0
566  562  563  0
570  -569  566  0
570  -565  -566  0
-570  566  -567  0
574  -573  -570  0
-574  -573  569  0
574  -569  -570  0
-574  570  571  0
-578  577  573  0
578  -574  575  0
-582  581  -578  0
582  578  579  0
-586  -585  -582  0
-586  -585  -581  0
586  581  -582  0
586  582  -583  0
-590  589  585  0
-590  -585  -586  0
-590  -586  587  0
594  593  -590  0
594  589  -590  0
598  -597  -594  0
-598  593  594  0
602  -598  -599  0
606  605  601  0
606  -601  -602  0
-606  -602  603  0
-610  609  605  0
-610  605  606  0
610  606  -607  0
-614  613  -610  0
614  -613  -609  0
-614  609  610  0
-614  -610  611  0
-618  617  614  0
-618  617  613  0
618  -613  -614  0
-622  -621  618  0
622  621  -617  0
-626  625  622  0
630  -629  -626  0
630  629  625  0
-630  -625  626  0
-634  -633  630  0
634  -629  630  0
-634  630  631  0
638  637  634  0
-638  637  -633  0
-638  -633  634  0
-638  -634  -635  0
-642  641  637  0
-642  637  638  0
642  638  639  0
-646  -645  642  0
646  -642  -643  0
650  649  646  0
650  -645  646  0
-654  -649  -650  0
658  657  654  0
658  -653  654  0
658  654  655  0
662  -657  -658  0
666  -665  -662  0
666  661  662  0
-670  -669  666  0
670  -669  -665  0
670  665  666  0
674  673  670  0
-674  -673  669  0
674  670  671  0
678  677  -674  0
-678  677  -673  0
682  -681  -678  0
-682  -681  -677  0
682  -677  678  0
686  685  -681  0
-690  689  -686  0
-690  -685  686  0
-690  686  687  0
694  693  -689  0
-694  690  691  0
698  -697  694  0
698  -697  -693  0
-698  -693  694  0
702  -701  697  0
702  -697  698  0
-702  -698  699  0
706  705  702  0
-706  -705  701  0
706  -702  703  0
710  -709  -706  0
710  -706  707  0
-714  713  -710  0
714  713  709  0
-714  709  710  0
-714  -710  711  0
718  -717  -713  0
-718  714  -715  0
-722  721  717  0
722  717  718  0
-722  -718  -719  0
726  -725  722  0
726  -721  -722  0
-726  -722  723  0
730  729  -726  0
730  -729  -725  0
-730  -725  726  0
734  729  -730  0
-734  730  -731  0
738  -737  734  0
-738  -737  733  0
-738  -733  734  0
738  -734  -735  0
-742  741  738  0
-742  -741  -737  0
-742  737  738  0
-742  738  739  0
746  -745  -741  0
-746  741  742  0
750  749  746  0
-750  -749  745  0
750  746  747  0
-754  753  -749  0
754  -750  -751  0
-758  753  -754  0
-758  -754  -755  0
762  761  -758  0
-762  757  -758  0
766  -765  762  0
-766  -765  761  0
-766  -761  762  0
-766  762  763  0
-770  769  -766  0
770  -769  -765  0
-774  773  770  0
-774  -773  -769  0
778  777  -774  0
778  -774  -775  0
782  -781  -777  0
782  -777  778  0
782  778  779  0
786  -785  -781  0
786  781  782  0
-790  -789  -786  0
-790  -789  785  0
-790  785  -786  0
-794  -793  790  0
794  790  -791  0
798  -797  -794  0
802  797  -798  0
802  -798  799  0
806  805  -802  0
810  809  806  0
-810  -809  -805  0
-814  813  810  0
-814  -813  809  0
-814  -809  -810  0
-814  -810  811  0
-818  -817  -813  0
-818  813  814  0
-818  814  -815  0
-822  821  -818  0
-822  817  -818  0
826  825  822  0
-826  -825  821  0
-826  -821  822  0
-826  -822  -823  0
830  829  -826  0
830  825  -826  0
-830  -826  -827  0
-834  833  -829  0
-838  -837  834  0
-838  837  -833  0
838  -833  834  0
-838  -834  -835  0
842  -841  -837  0
-842  837  838  0
846  845  841  0
-846  841  842  0
846  -842  -843  0
850  849  -846  0
850  -846  -847  0
-854  853  -850  0
-854  -853  849  0
-854  849  -850  0
854  850  -851  0
858  -857  -853  0
-858  -853  854  0
858  854  855  0
-862  -861  -857  0
862  -857  -858  0
-866  865  -862  0
-866  865  861  0
-866  -861  862  0
-866  862  863  0
870  -869  -865  0
870  866  867  0
874  -870  871  0
878  -877  -874  0
878  877  -873  0
878  -873  874  0
-882  877  -878  0
-886  885  882  0
886  -885  881  0
-886  -882  -883  0
890  889  886  0
-890  889  885  0
890  885  886  0
890  886  -887  0
-894  893  -890  0
894  -893  -889  0
894  -890  -891  0
-898  -897  894  0
898  897  -893  0
898  894  895  0
-902  897  -898  0
906  -905  -901  0
906  901  -902  0
-906  902  -903  0
910  -909  -906  0
-910  909  -905  0
910  905  906  0
914  -909  -910  0
914  910  911  0
-918  917  -914  0
-918  -917  913  0
918  -913  -914  0
-918  914  -915  0
922  -921  918  0
922  921  -917  0
-922  917  918  0
922  -918  919  0
-926  -925  922  0
926  -921  922  0
-926  -922  923  0
930  929  926  0
-930  929  925  0
-930  925  926  0
930  926  -927  0
934  -933  930  0
-934  -929  930  0
-934  -930  931  0
938  937  934  0
938  -933  934  0
-938  934  935  0
942  941  -938  0
-942  937  -938  0
-946  -945  -942  0
946  945  941  0
946  -941  -942  0
946  -942  943  0
950  949  -946  0
-950  -949  945  0
950  -945  946  0
954  953  950  0
-954  -949  -950  0
-954  950  -951  0
-958  957  954  0
-958  957  953  0
958  -953  -954  0
958  -954  -955  0
7  6  2  0
7  3  -4  0
-15  -14  -11  0
15  -14  10  0
15  -10  11  0
19  -18  -15  0
19  15  -16  0
-23  22  19  0
-23  22  -18  0
23  -18  19  0
23  -19  20  0
-27  -26  22  0
-27  -22  23  0
-31  30  27  0
31  30  26  0
31  26  -27  0
31  -27  -28  0
-35  -34  -30  0
35  30  -31  0
39  38  -35  0
-39  -38  -34  0
39  -35  -36  0
-43  39  40  0
-47  -46  43  0
-47  46  -42  0
47  -42  43  0
47  43  -44  0
-51  50  -47  0
51  -50  46  0
51  46  47  0
51  -47  -48  0
-55  54  -51  0
-55  54  -50  0
-55  50  -51  0
55  -51  52  0
-59  -58  -55  0
-59  54  55  0
-63  -59  -60  0
67  66  -63  0
67  -66  62  0
-67  62  -63  0
67  -63  -64  0
71  70  -66  0
75  -74  -70  0
-75  71  72  0
79  -78  -75  0
79  -74  -75  0
-79  -75  -76  0
-83  -79  -80  0
87  -86  -83  0
-87  83  -84  0
-91  90  -86  0
91  -86  87  0
91  87  -88  0
-95  94  91  0
-95  91  -92  0
99  -98  -94  0
-99  -94  -95  0
99  95  -96  0
-103  -102  -99  0
103  102  -98  0
-107  106  -103  0
-111  -106  107  0
111  -107  108  0
115  -110  -111  0
115  111  112  0
119  -114  -115  0
119  -115  116  0
123  122  -119  0
123  122  -118  0
-123  118  -119  0
-123  -119  120  0
-127  122  -123  0
131  -130  127  0
-131  130  -126  0
-131  127  128  0
-135  134  131  0
-135  134  130  0
135  -130  131  0
-135  131  132  0
139  138  135  0
-143  138  -139  0
143  139  -140  0
-147  146  143  0
147  -146  142  0
147  -142  -143  0
151  -150  -146  0
151  -146  147  0
-151  147  -148  0
-155  150  151  0
159  158  154  0
159  154  -155  0
-163  -162  -159  0
-163  -159  -160  0
167  -166  -163  0
-167  -166  162  0
171  -166  -167  0
-171  -167  168  0
175  -174  171  0
-175  174  -170  0
175  170  171  0
175  171  -172  0
179  178  -175  0
-179  -178  -174  0
-179  174  -175  0
179  175  -176  0
183  -182  179  0
-183  178  179  0
-187  186  182  0
191  -190  -187  0
-191  190  186  0
199  -198  195  0
-199  198  194  0
-199  194  -195  0
-199  195  196  0
-207  206  202  0
-211  -210  207  0
-211  210  -206  0
211  206  207  0
-211  207  208  0
215  -214  211  0
-215  -214  210  0
215  -210  -211  0
219  218  215  0
219  214  -215  0
-223  222  218  0
223  -218  219  0
223  -219  220  0
-227  -226  223  0
227  -226  222  0
-227  -222  223  0
227  -223  224  0
-231  -230  -227  0
235  -234  -231  0
235  -234  230  0
-235  230  231  0
-235  -231  232  0
239  -238  -235  0
239  -235  -236  0
243  242  239  0
-243  -242  -238  0
243  238  -239  0
243  -239  240  0
247  -246  243  0
247  246  -242  0
-247  242  243  0
-247  -243  244  0
251  247  248  0
-255  -254  -251  0
-255  -254  -250  0
255  250  251  0
-255  251  -252  0
-259  258  255  0
-259  258  254  0
259  -254  -255  0
-259  -255  256  0
-263  -262  258  0
263  258  259  0
267  266  263  0
-267  263  264  0
271  270  -267  0
-271  -270  266  0
-275  274  -271  0
-275  -270  271  0
-275  -271  -272  0
-279  278  -275  0
279  -278  274  0
-279  274  275  0
279  275  276  0
283  282  278  0
-283  -278  279  0
-283  279  280  0
287  -286  283  0
-291  290  287  0
-291  286  -287  0
-291  -287  -288  0
295  294  -290  0
295  -290  291  0
295  -291  292  0
-299  -294  295  0
-303  302  -298  0
303  299  -300  0
307  306  -303  0
307  302  303  0
-307  -303  -304  0
-311  -310  -307  0
-311  -306  307  0
-311  307  -308  0
315  314  310  0
315  -310  -311  0
315  -311  312  0
319  -318  315  0
319  314  315  0
-319  -315  -316  0
-323  322  -319  0
323  318  319  0
-323  -319  320  0
327  326  323  0
-327  322  323  0
-327  323  324  0
331  330  -327  0
-331  -326  327  0
-335  -334  331  0
-335  330  331  0
335  -331  -332  0
339  338  335  0
-339  -338  334  0
339  334  335  0
-339  -335  -336  0
-343  -342  339  0
343  -342  -338  0
-343  -338  -339  0
347  346  -343  0
347  -346  -342  0
-347  342  343  0
-347  343  -344  0
-351  -350  347  0
-351  350  346  0
351  347  -348  0
-355  -354  351  0
-355  -350  351  0
-355  -351  352  0
359  358  354  0
-359  354  -355  0
-359  -355  356  0
363  362  359  0
-363  -362  358  0
363  -359  -360  0
-367  366  362  0
-367  362  363  0
367  -363  364  0
-371  -370  -367  0
-371  -366  367  0
375  -374  -371  0
375  374  370  0
375  -370  371  0
379  -378  -375  0
-379  -374  -375  0
383  -382  -379  0
383  -378  -379  0
-383  -379  -380  0
-387  386  -383  0
-387  -386  -382  0
-387  382  -383  0
-387  -383  -384  0
-391  -390  386  0
-391  -386  -387  0
-395  -394  -391  0
395  -390  -391  0
-395  -391  -392  0
399  398  395  0
-403  -402  399  0
403  -402  -398  0
-407  406  -403  0
-411  410  406  0
-411  -407  408  0
415  414  410  0
415  410  -411  0
419  418  414  0
419  -414  415  0
423  -422  -419  0
-423  -418  419  0
427  426  422  0
-431  -430  -427  0
431  -427  428  0
-435  434  -431  0
-435  434  -430  0
439  -438  435  0
-439  -438  434  0
439  434  -435  0
-443  438  -439  0
-443  -439  -440  0
447  -446  -443  0
-447  446  -442  0
-447  -442  -443  0
447  443  -444  0
451  -450  -446  0
-451  446  -447  0
451  -447  448  0
455  -454  -451  0
-455  454  450  0
-455  450  451  0
-459  -458  455  0
459  -458  454  0
459  454  -455  0
-459  455  456  0
-463  462  459  0
463  -462  458  0
-463  458  459  0
-467  466  -463  0
-467  462  -463  0
471  470  467  0
-471  466  -467  0
471  467  -468  0
475  474  -471  0
475  470  -471  0
479  -478  474  0
-479  474  -475  0
483  -482  479  0
483  -482  478  0
487  -486  483  0
-487  -482  483  0
-487  483  484  0
491  490  -487  0
491  486  -487  0
495  494  490  0
-495  490  491  0
495  -491  -492  0
-499  498  495  0
499  494  495  0
499  -495  -496  0
503  502  498  0
503  -498  -499  0
503  499  500  0
507  506  -502  0
507  -503  504  0
-511  -510  -506  0
-511  -506  507  0
511  -507  -508  0
515  -514  -511  0
-515  514  -510  0
-515  -510  511  0
-515  511  -512  0
-519  518  514  0
-519  514  515  0
523  518  -519  0
523  -519  520  0
-527  526  523  0
-527  -522  523  0
531  -530  527  0
531  526  527  0
531  527  528  0
-535  -534  531  0
-539  538  534  0
-539  -535  536  0
543  542  538  0
-543  538  -539  0
-543  -539  540  0
-547  -546  -543  0
547  -542  543  0
547  543  544  0
-551  550  547  0
555  -554  551  0
-555  550  551  0
555  551  -552  0
-559  558  -554  0
559  555  -556  0
563  562  -559  0
563  -562  -558  0
-563  558  559  0
-563  559  560  0
567  -566  562  0
-567  -562  -563  0
-567  -563  564  0
571  570  567  0
571  566  -567  0
-571  567  568  0
-575  574  571  0
-575  574  -570  0
575  -570  571  0
575  -571  -572  0
579  -578  575  0
579  578  -574  0
579  -574  575  0
-579  -575  576  0
-583  -579  -580  0
587  -586  -583  0
-587  -586  -582  0
587  -582  -583  0
587  -583  584  0
591  -590  587  0
-591  590  586  0
591  586  -587  0
-595  590  591  0
-595  591  592  0
-599  598  594  0
599  594  -595  0
-603  -602  599  0
603  602  598  0
-607  -606  603  0
-607  602  -603  0
607  603  604  0
-611  606  607  0
-611  607  608  0
615  614  -611  0
-615  -614  610  0
-615  610  -611  0
-615  611  -612  0
-619  618  615  0
619  -618  614  0
619  615  616  0
623  -622  -619  0
-623  -622  -618  0
-627  -626  -623  0
627  626  -622  0
-627  623  624  0
631  -630  -627  0
-631  630  626  0
-635  -634  631  0
635  -634  630  0
-635  -630  -631  0
-639  -638  635  0
639  638  -634  0
-639  -634  635  0
-639  -635  636  0
-643  642  639  0
643  -642  -638  0
-643  638  -639  0
-643  639  640  0
-647  646  -643  0
647  -646  -642  0
-647  -642  643  0
-647  -643  -644  0
-651  -650  647  0
651  650  646  0
655  -654  651  0
655  -654  -650  0
-655  -651  -652  0
659  654  -655  0
-663  662  659  0
-663  662  658  0
-663  -658  -659  0
663  -659  660  0
667  -666  663  0
667  -662  -663  0
671  -670  -667  0
-671  -666  667  0
-675  674  670  0
679  -674  -675  0
-679  675  -676  0
-683  682  679  0
-683  -682  -678  0
683  678  679  0
683  679  680  0
-687  686  683  0
687  686  682  0
-687  683  -684  0
691  690  -687  0
-691  690  686  0
691  -686  -687  0
-691  687  -688  0
695  694  -690  0
695  691  -692  0
-699  698  695  0
699  -694  695  0
699  -695  696  0
703  -702  699  0
703  702  -698  0
703  -698  699  0
-703  -699  -700  0
707  706  703  0
-707  -706  -702  0
-707  -702  703  0
711  710  -707  0
-711  -710  706  0
711  -706  -707  0
715  714  -711  0
-715  714  710  0
-715  710  711  0
715  -711  712  0
719  714  715  0
719  715  -716  0
723  722  719  0
723  718  719  0
727  726  -723  0
727  726  722  0
-731  730  -727  0
-731  -730  726  0
731  726  727  0
731  -727  -728  0
-735  734  730  0
-735  -730  -731  0
735  731  732  0
-739  738  735  0
739  738  734  0
-739  -734  735  0
739  735  736  0
-743  -742  739  0
743  -742  738  0
743  -738  739  0
743  -739  -740  0
747  -742  -743  0
751  -750  746  0
-751  746  -747  0
751  747  748  0
-755  -754  751  0
-755  750  -751  0
-759  -758  -755  0
-759  758  754  0
759  754  755  0
759  -755  -756  0
763  -762  759  0
-763  -758  759  0
767  766  -763  0
767  766  762  0
-767  762  763  0
-767  763  -764  0
-771  -770  767  0
-771  -770  766  0
771  -767  -768  0
775  774  -771  0
-775  -774  -770  0
779  -778  -775  0
779  -774  -775  0
783  -782  -779  0
783  -782  -778  0
783  -779  780  0
-787  -786  783  0
787  782  -783  0
-787  783  -784  0
791  -790  -787  0
791  790  -786  0
-791  -786  -787  0
-791  787  788  0
-795  794  791  0
-795  794  790  0
-795  791  -792  0
799  798  -795  0
-799  794  -795  0
-799  795  796  0
-803  -802  798  0
807  -806  -802  0
-807  -803  804  0
811  -810  807  0
-811  -810  -806  0
-811  -806  807  0
-815  810  811  0
815  811  -812  0
819  -818  -815  0
819  -818  814  0
-819  814  -815  0
819  815  -816  0
-823  822  -819  0
823  822  818  0
827  826  -822  0
-827  -822  823  0
-827  823  -824  0
831  -830  -827  0
-831  830  826  0
831  -827  -828  0
835  834  -831  0
-835  834  -830  0
-835  831  832  0
839  838  835  0
-839  834  835  0
-839  -835  -836  0
-843  842  838  0
843  -838  839  0
-843  -839  -840  0
847  -846  -843  0
847  842  843  0
-851  -850  847  0
-851  -847  -848  0
855  -854  851  0
855  854  -850  0
855  -851  -852  0
-859  858  855  0
859  858  854  0
859  -854  855  0
-863  -862  859  0
863  -858  -859  0
867  866  862  0
867  863  -864  0
-871  870  -866  0
-871  866  -867  0
875  870  -871  0
-875  871  872  0
879  -878  875  0
-879  878  874  0
879  -875  876  0
-883  882  -879  0
-883  882  878  0
883  -878  879  0
-883  -879  880  0
887  -886  882  0
887  882  883  0
-887  883  884  0
891  -890  886  0
891  886  -887  0
891  887  -888  0
-895  894  891  0
895  894  890  0
-895  890  -891  0
-895  891  892  0
-899  898  -895  0
899  -898  -894  0
899  894  895  0
899  -895  -896  0
903  902  899  0
903  -902  -898  0
903  898  -899  0
903  -899  -900  0
-907  -906  903  0
-907  -902  -903  0
907  -903  -904  0
911  910  -906  0
-911  906  907  0
-915  -914  910  0
915  911  -912  0
-919  -918  -914  0
-919  -914  915  0
923  922  -919  0
-923  -922  -918  0
923  918  -919  0
-923  -919  920  0
-927  -926  -923  0
-927  -923  924  0
931  930  -927  0
-931  930  926  0
-931  926  927  0
931  -927  -928  0
935  934  -931  0
-935  -934  -930  0
935  930  931  0
-939  -938  -935  0
-939  938  -934  0
943  -942  -939  0
-943  942  -938  0
943  939  940  0
947  946  -943  0
-947  946  -942  0
-947  -942  943  0
947  943  -944  0
951  -950  946  0
-951  946  -947  0
-951  947  948  0
955  954  950  0
955  950  951  0
955  -951  -952  0
959  -955  956  0
-8  -7  -4  0
-8  7  -3  0
8  -3  -4  0
-12  11  8  0
12  -11  -7  0
12  7  8  0
-16  11  12  0
-20  19  -15  0
24  -23  -20  0
24  23  -19  0
24  19  20  0
-28  27  -23  0
-28  -23  -24  0
-32  -31  28  0
32  -31  27  0
32  -27  28  0
36  35  -32  0
-36  -31  32  0
40  -39  -36  0
44  -43  39  0
48  47  -43  0
-48  43  -44  0
-52  51  -48  0
52  51  47  0
-52  47  48  0
-56  55  -52  0
-56  51  -52  0
-60  -59  -56  0
60  -59  55  0
-60  -55  -56  0
-64  63  -60  0
64  -63  59  0
64  59  -60  0
68  -67  64  0
68  63  64  0
-72  -71  -67  0
76  75  72  0
-76  -75  71  0
-76  71  -72  0
80  -75  76  0
-84  -83  -80  0
-84  -79  -80  0
88  87  84  0
-88  -87  -83  0
92  91  88  0
-92  91  -87  0
92  -87  88  0
96  91  92  0
104  103  100  0
104  103  -99  0
108  107  -104  0
-112  111  108  0
-112  -111  -107  0
-116  115  111  0
-116  111  112  0
-120  119  116  0
120  -119  115  0
120  115  116  0
-124  123  -120  0
124  123  119  0
124  119  120  0
128  -127  -124  0
128  123  -124  0
-132  131  -128  0
132  131  -127  0
132  127  128  0
136  135  -131  0
-136  131  132  0
140  135  136  0
144  -143  139  0
144  139  -140  0
152  151  -148  0
152  -151  -147  0
-156  -155  151  0
160  159  -155  0
164  163  -159  0
-164  159  -160  0
-168  167  164  0
168  167  -163  0
168  163  -164  0
-176  175  172  0
176  -175  171  0
-176  171  172  0
-180  -179  -176  0
-180  -179  175  0
-180  -175  -176  0
184  -183  -179  0
-184  -179  -180  0
-188  -187  183  0
188  -183  -184  0
196  -195  191  0
196  -191  192  0
200  199  -196  0
-200  199  195  0
204  -203  200  0
-204  -203  199  0
-208  -207  -204  0
208  -203  204  0
-212  -211  208  0
212  -211  207  0
-212  207  208  0
-216  -215  -211  0
-220  219  216  0
-220  -219  -215  0
220  215  216  0
224  -223  -219  0
-224  219  220  0
-228  227  224  0
-228  -227  -223  0
232  231  -227  0
-240  -239  236  0
244  243  240  0
-244  243  239  0
248  -247  243  0
248  -243  244  0
-252  -251  -248  0
252  251  247  0
-252  -247  -248  0
256  255  251  0
260  259  256  0
-260  -255  256  0
264  263  259  0
268  -267  -263  0
-268  263  264  0
-276  -275  272  0
-276  275  -271  0
276  -271  -272  0
-280  -279  276  0
-284  283  -280  0
284  -283  279  0
-288  -287  284  0
-292  291  288  0
-292  -291  287  0
-296  -291  -292  0
-300  -299  296  0
300  -299  295  0
-300  295  -296  0
304  303  -300  0
-304  -299  -300  0
-308  -303  -304  0
312  -311  -307  0
-312  -307  -308  0
-316  -315  -312  0
316  -315  -311  0
-320  319  316  0
-320  -319  -315  0
324  323  320  0
324  -323  -319  0
324  -319  320  0
328  327  -324  0
328  -327  -323  0
-332  -327  -328  0
-336  -335  -331  0
-340  339  335  0
-340  -335  -336  0
-344  -343  -339  0
-344  -339  -340  0
348  -347  -343  0
348  343  344  0
356  -355  352  0
356  351  352  0
-360  359  -356  0
364  -363  -359  0
-368  367  364  0
-368  367  363  0
372  -371  -368  0
-372  -371  -367  0
-372  -367  368  0
-376  -375  -372  0
376  375  -371  0
-376  -371  -372  0
-380  379  -376  0
380  -379  -375  0
384  383  380  0
384  -383  379  0
388  -387  -383  0
388  383  -384  0
-392  -391  387  0
-392  387  388  0
396  -395  392  0
404  -403  400  0
-404  -403  399  0
-404  399  400  0
408  -407  404  0
408  -403  404  0
-412  -411  408  0
-416  415  -412  0
-416  -415  411  0
420  419  -416  0
-424  -423  420  0
424  419  -420  0
428  -427  424  0
-428  423  424  0
432  -431  -428  0
-432  -431  427  0
-432  427  -428  0
436  435  432  0
-436  -435  431  0
-440  439  -435  0
440  435  436  0
-444  -443  439  0
-444  -439  440  0
448  -447  -443  0
-448  443  -444  0
-452  451  -448  0
-452  451  -447  0
456  -455  -451  0
460  459  -456  0
-460  459  455  0
-468  -467  464  0
472  -471  -467  0
-476  -475  472  0
476  -471  -472  0
-480  479  475  0
-480  475  -476  0
-484  483  -479  0
-484  -479  480  0
488  -487  483  0
-492  491  488  0
-492  -491  -487  0
-496  495  492  0
496  495  -491  0
-496  491  -492  0
-500  -499  -495  0
504  -503  500  0
-504  -499  -500  0
508  503  504  0
512  511  -508  0
-512  -511  -507  0
-512  -507  508  0
516  515  512  0
516  -511  512  0
-520  -519  -515  0
-520  515  -516  0
-524  523  520  0
524  -523  -519  0
-528  -527  -523  0
528  523  -524  0
532  531  -528  0
-532  -531  -527  0
-536  -535  -532  0
-536  535  531  0
536  531  532  0
-540  -539  -535  0
-540  -535  536  0
544  -543  540  0
544  -543  539  0
-548  -547  -544  0
548  547  543  0
548  -543  544  0
-552  551  -547  0
-552  -547  548  0
-556  555  552  0
-556  -555  551  0
-556  -551  552  0
-560  -559  -556  0
-560  -559  555  0
-560  -555  -556  0
564  563  560  0
-564  559  560  0
-568  567  -563  0
-568  563  564  0
572  571  -568  0
572  567  568  0
576  575  -572  0
576  571  -572  0
580  -579  576  0
-580  579  575  0
-580  575  576  0
-584  -583  580  0
584  -583  -579  0
584  -579  580  0
-588  -583  -584  0
592  -591  -588  0
-592  591  587  0
596  -595  -592  0
-596  595  -591  0
596  -591  592  0
600  599  596  0
-600  -595  596  0
-604  -603  -600  0
604  -599  600  0
608  -607  603  0
-612  611  608  0
-612  611  607  0
-612  607  608  0
-616  615  -612  0
-616  615  -611  0
616  611  612  0
620  619  -615  0
-624  623  620  0
-624  -623  619  0
-628  -627  -623  0
-628  623  -624  0
-632  631  -628  0
632  631  627  0
-632  627  628  0
636  -635  -632  0
636  -635  -631  0
636  -631  -632  0
-640  -639  635  0
-640  -635  636  0
644  643  -640  0
644  643  -639  0
644  639  640  0
-648  647  -643  0
-648  643  644  0
652  -651  -648  0
-652  -651  -647  0
652  647  -648  0
-656  -655  651  0
-656  651  652  0
660  -659  656  0
660  -659  655  0
-664  -663  -660  0
664  -663  -659  0
-664  659  660  0
-672  671  667  0
-672  -667  -668  0
-676  675  -672  0
-676  671  672  0
-680  -679  -675  0
-684  683  680  0
-684  683  679  0
-688  -687  -684  0
688  687  -683  0
688  683  684  0
-692  691  687  0
-696  695  -692  0
-696  -695  -691  0
-696  691  -692  0
700  695  -696  0
704  703  -700  0
-704  703  -699  0
708  -707  -704  0
-708  -707  703  0
708  703  704  0
712  711  -708  0
-712  -711  707  0
716  715  711  0
716  -711  -712  0
720  -719  -716  0
720  -719  715  0
-720  -715  716  0
-724  -723  720  0
728  -727  724  0
728  727  -723  0
-732  731  -728  0
732  731  727  0
740  -739  -735  0
-740  -735  736  0
-744  743  740  0
-744  -743  739  0
-748  747  -743  0
752  -751  -747  0
-752  -747  -748  0
756  -755  -752  0
-756  755  751  0
756  751  -752  0
760  -755  -756  0
764  763  759  0
-768  -767  -763  0
768  -763  -764  0
772  771  -767  0
-772  767  -768  0
-776  775  772  0
776  -771  772  0
-780  779  -776  0
780  -779  -775  0
780  -775  -776  0
784  783  780  0
784  779  -780  0
-788  -787  -784  0
-788  -787  -783  0
-788  -783  -784  0
-792  -791  -788  0
792  -791  -787  0
-796  795  -792  0
-796  795  -791  0
796  791  -792  0
-804  803  800  0
-804  -803  799  0
804  799  -800  0
-808  807  -803  0
808  803  804  0
812  811  -807  0
812  807  -808  0
-816  815  812  0
-816  -811  -812  0
-820  819  -815  0
-824  -823  819  0
824  819  -820  0
-832  -831  828  0
-832  831  -827  0
836  835  832  0
840  -839  -836  0
840  839  835  0
-840  835  836  0
844  -843  -840  0
844  -839  840  0
-848  -847  -843  0
-848  -843  844  0
-852  851  -848  0
852  847  -848  0
856  855  852  0
-860  -859  -856  0
-860  859  -855  0
-864  863  -859  0
-864  -859  -860  0
868  867  863  0
-872  871  -868  0
-872  871  867  0
872  -867  -868  0
876  -875  871  0
-876  -871  -872  0
880  879  876  0
-880  875  876  0
884  -883  -879  0
-884  879  -880  0
-888  -887  884  0
-888  -883  -884  0
892  887  888  0
-896  895  892  0
896  895  -891  0
900  -899  896  0
-900  -899  895  0
900  895  -896  0
904  903  900  0
904  -903  899  0
904  899  900  0
908  907  -904  0
908  -907  903  0
-908  903  904  0
-912  911  -907  0
912  907  908  0
920  919  -916  0
920  919  -915  0
-920  -915  -916  0
-924  923  -920  0
-924  -919  920  0
928  -927  -924  0
928  -923  -924  0
932  931  -928  0
932  -931  927  0
-932  -927  928  0
-936  935  -932  0
-936  935  -931  0
944  943  939  0
-948  -947  943  0
948  943  944  0
-952  -951  -948  0
952  -951  947  0
-956  955  -952  0
-956  -955  951  0
956  -951  952  0
-960  -959  956  0
-960  -959  -955  0
960  -955  956  0
